27 27
21
3 3   21 20
3 4   21 23
3 5   15 12
3 6   24 21
3 7   18 11
3 8   12 19
3 9   18 18
3 10   15 17
3 11   18 0
3 12   15 0
3 19   12 0
3 20   21 0
3 21   24 0
4 3   0 24
4 4   0 20
4 6   8 21
4 7   8 14
4 8   4 19
4 14   8 0
4 19   4 0
4 20   0 0